32      4       
17      14      17      21      
0       0       0       0       0       3       2       3       4       
1       0       0       6       1       2       5       7       
8       5       0       8       0       3       6       9       27      
2       0       0       2       0       1       8       
8       9       2       7       0       1       10      
7       0       0       0       1       2       16      18      
1       0       4       2       4       1       11      
6       3       5       2       6       1       31      
7       0       0       7       6       2       24      26      
3       0       0       1       0       3       11      12      15      
2       0       3       5       0       1       13      
2       0       0       2       4       3       14      17      25      
5       7       3       0       0       2       16      23      
1       0       4       0       9       3       16      19      26      
5       3       0       0       1       1       22      
9       0       7       0       0       1       30      
4       1       0       5       0       2       19      29      
7       2       3       8       0       2       20      28      
8       0       1       0       0       2       21      24      
3       0       0       5       0       1       25      
7       7       0       1       0       1       30      
6       7       0       1       0       1       24      
10      5       0       0       9       1       26      
2       0       0       0       10      1       31      
8       8       9       0       5       1       29      
8       8       8       8       2       1       31      
8       0       6       2       0       1       30      
7       1       0       0       4       1       29      
7       0       2       8       0       1       32      
5       8       0       3       0       1       32      
1       9       0       10      0       1       32      
0       0       0       0       0       0       